NAME          BLANK   
ROWS
 N  OBJROW
 L  R0000000
COLUMNS
    C0000000  OBJROW     -356.         R0000000  872.        
    C0000001  OBJROW     -662.         R0000000  403.        
    C0000002  OBJROW     -780.         R0000000  449.        
    C0000003  OBJROW     -479.         R0000000  359.        
    C0000004  OBJROW     -735.         R0000000  311.        
    C0000005  OBJROW     -258.         R0000000  76.         
    C0000006  OBJROW     -159.         R0000000  294.        
    C0000007  OBJROW     -2.           R0000000  197.        
    C0000008  OBJROW     -200.         R0000000  435.        
    C0000009  OBJROW     -375.         R0000000  806.        
    C0000010  OBJROW     -28.          R0000000  182.        
    C0000011  OBJROW     -743.         R0000000  580.        
    C0000012  OBJROW     -154.         R0000000  174.        
    C0000013  OBJROW     -575.         R0000000  600.        
    C0000014  OBJROW     -712.         R0000000  725.        
    C0000015  OBJROW     -888.         R0000000  888.        
RHS
    RHS       R0000000  13865.      
BOUNDS
 BV BOUND     C0000000  1.          
 BV BOUND     C0000001  1.          
 BV BOUND     C0000002  1.          
 BV BOUND     C0000003  1.          
 BV BOUND     C0000004  1.          
 BV BOUND     C0000005  1.          
 BV BOUND     C0000006  1.          
 BV BOUND     C0000007  1.          
 BV BOUND     C0000008  1.          
 BV BOUND     C0000009  1.          
 BV BOUND     C0000010  1.          
 BV BOUND     C0000011  1.          
 BV BOUND     C0000012  1.          
 BV BOUND     C0000013  1.          
 BV BOUND     C0000014  1.          
 BV BOUND     C0000015  1.          
ENDATA
